795,369
607,178
829,554
618,469
515,919
1062,25
558,237
231,406
591,406
254,267
980,-6
575,300
624,424
652,410
732,81
311,286
561,776
847,919
293,124
658,554
709,229
655,393
644,292
488,140
753,354
1155,331
471,406
998,-30
664,382
690,378
293,124
681,46
769,285
542,833
838,891
1001,243
727,264
